/* Problema de empacotamento */

/* xij: Combinção de produtos no contentor j */
/* j = 1, contentor de tamanho 11 e quantidade ilimitada; */
/* j = 2, contentor de tamanho 10 e quantidade 2; */
/* j = 3, contentor de tamanho 7 e quantidade 6; */

/* Objective function */
minimize :
     x11 + x21 + x31 + x41 + x51 + x61 + x71 + x81 + x91 + x101 + x111 + x121 + x131 + x141 + x151 + x161 + x171 + x181 + x191 + x201 + x211 + x221 + x231 + x241 + x251 + x261 + x271 +	x281 +	x291 +	x301 +	x311 +	x321 +	x331 +	x341 +	x351 +	x361 +	x371
    + x12 + x22 + x32 + x42 + x52 + x62 + x72 + x82 + x92 + x102 + x112 + x122 + x142 + x152 + x162 + x172 + x182 + x192 + x202 + x212 + x222 + x232	+ x242	+ x252	+ x262	+ x272	+ x282	+ x292	+ x302	+ x312
    + x13 + x23 + x33 + x43 + x53 + x73 + x83 + x93 + x103 + x113 + x123 + x133 + x143 + x153 + x163	+ x173	+ x183	+ x193	+ x203;


/* Restricoes dos itens */

/* produto com tamanho 1 */
I1:
  1 x11 + 1 x21 + 2 x31 + 2 x41 + 1 x51 + 2 x61 + 1 x71 + 1 x81 + 1 x91 + 2 x131 + 1 x141 + 1 x151 + 1 x181	+ 2 x191 + 1 x231 + 2 x241 + 2 x251 + 2 x271 + 2	x281 + 1	x291 +	1 x301 +	2 x311 + 2	x321 + 1 x371
  + 1 x12 + 1 x42 + 2 x52 + 1 x92 + 2 x102 + 2 x112+ 	2 x122 + 1	x142 + 1 x152 + 2	x162 + 2 x172	+ 1 x222 + 1 x232 +	1 x242 + 2 x272	+ 2 x292	+ 1 x312
  + 2 x33 + 1 x43 + 1 x53 + 2 x73 + 1 x103 + 1 x113	+ 2 x133	+ 2	x153 + 2 x173	+ 1	x193 + 1	x203 = 2;

/* produto com tamanho 2 */
I2:
  3 x11 + 2 x21 + 2 x31 + 1 x41 + 3 x51 + 1 x71 + 1 x81 + 1 x101 + 3 x111 + 1 x151 + 1 x161 +	1 x171 + 3 x211	+ 1 x241 + 4 x251 + 5 x261 + 1 x271	+	1 x291 +	2 x301 + 2 x311 +	2 x321 + 2 x351 + 1 x361
  + 1 x12 + 1 x22 + 1 x32 + 3 x72 + 1 x102 + 1 x112	+ 1 x142 + 2	x152 + 2 x162 + 2	x172 + 2 x202 + 1 x212 + 1 X232 + 4 x282 + 3 x292 + 2 x302 + 2 x312
  + 1 x13 + 1 x53 + 1 x73 + 2 x83 + 1 x103 + 1 x123	+ 3 x143 + 2 x153 + 1 x163	+ 2 x203 = 15;

/* produto com tamanho 3 */
I3:
  2 x21 + 1 x41 + 3 x61 + 1 x71 + 2 x91 + 3 x101 + 2 x121 + 1 x151	+ 1 x161	+ 3 x181	+ 2 x221 + 2 x241 + 1	x281 +	2 x291 + 1 x311 + 1	x321 + 3	x331	+ 1 x361
  + 1 x12 + 1 x22 + 3 x42 + 2 x82 + 2 x102 + 1 x122	+	2 x142	+ 1 x162 + 1 x172 + 3 x182	+ 1 x212 + 1	x242 + 1 x252	+ 2 x272	+ 1 x312
  + 1 x23 + 2 x43 + 1 x73 + 1 x83 + 2 x93 + 1 x103 + 1 x163 + 1	x173 = 10;

/* produto com tamanho 4 */
I4:
  1 x11 + 1 x41 + 1 x51 + 2 x81 + 1 x91 + 1 x131 + 1 x151 + 2	x171 + 2 x191	+ 1 x211 + 1 x221 + 1 x231 + 1 x281	+ 1	x301	+ 1 x341 + 1 	x361 + 2 x371
  + 1 x12 + 2 x32 + 2 x52 + 1 x72 + 1 x82 + 1 x92 + 1 x122 + 1 x152	+1 x192	+ 1 x212 + 2 x222 + 1	x242 +	2 x262	+ 1	x302
  + 1 x23 + 1 x53 + 1 x123 + 1 x133 + 1 x193 = 10;

/* produto com tamanho 5 */
I5:
   1 x31 + 1 x71 + 1  x111 + 1 x121 + 1 x131 + 2 x141 + 1 x161 + 2 x201 + 1 x231 + 1 x271	+ 1 x341 + 1 x351
  + 1 x22 + 2 x62 + 1 x92 + 1 x112 + 1 x192 + 1 x202 + 1 x232	+ 1	x252
  + 1 x13 + 1 x33 + 1 x113 + 1 x183 = 5;

/* Restricoes dos contentores */

//contentor 2
C2: x12 + x22 + x32 + x42 + x52 + x62 + x72 + x82 + x92 + x102 + x112 +	x122 + x142 +	
    x152 + x162 +	x172 +	x182 +	x192 +	x202 + x212 + x222 + x232 + x242 + x252 + x262 + x272 + x282 + x292 + x302 + x312 <= 2;

//contentor 3
C3: x13 + x23 + x33 + x43 + x53 + x73 + x83 + x93 + x103 + x113 + x123 + x133 + x143 + x153 + x163	+ x173	+ x183	+ x193	+ x203 <= 6;


final1 = 1 x11 + 1 x21 + 2 x31 + 2 x41 + 1 x51 + 2 x61 + 1 x71 + 1 x81 + 1 x91 + 2 x131 + 1 x141 + 1 x151 + 1 x181	+ 2 x191 + 1 x231 + 2 x241 + 2 x251 + 2 x271 + 2	x281 + 1	x291 +	1 x301 +	2 x311 + 2	x321 + 1 x371
  + 1 x12 + 1 x42 + 2 x52 + 1 x92 + 2 x102 + 2 x112+ 	2 x122 + 1	x142 + 1 x152 + 2	x162 + 2 x172	+ 1 x222 + 1 x232 +	1 x242 + 2 x272	+ 2 x292	+ 1 x312
  + 2 x33 + 1 x43 + 1 x53 + 2 x73 + 1 x103 + 1 x113	+ 2 x133	+ 2	x153 + 2 x173	+ 1	x193 + 1	x203;

final2 = 3 x11 + 2 x21 + 2 x31 + 1 x41 + 3 x51 + 1 x71 + 1 x81 + 1 x101 + 3 x111 + 1 x151 + 1 x161 + 1 x171 + 3 x211 + 1 x241 + 4 x251 + 5 x261 + 1 x271	+	1 x291 +	2 x301 + 2 x311 +	2 x321 + 2 x351 + 1 x361
  + 1 x12 + 1 x22 + 1 x32 + 3 x72 + 1 x102 + 1 x112	+ 1 x142 + 2	x152 + 2 x162 + 2	x172 + 2 x202 + 1 x212 + 1 X232 + 4 x282 + 3 x292 + 2 x302 + 2 x312
  + 1 x13 + 1 x53 + 1 x73 + 2 x83 + 2 x93 + 1 x103 + 1 x163 + 1	x173;

final3 = 2 x21 + 1 x41 + 3 x61 + 1 x71 + 2 x91 + 3 x101 + 2 x121 + 1 x151	+ 1 x161	+ 3 x181	+ 2 x221 + 2 x241 + 1	x281 +	2 x291 + 1 x311 + 1	x321 + 3	x331	+ 1 x361
  + 1 x12 + 1 x22 + 3 x42 + 2 x82 + 2 x102 + 1 x122	+	2 x142	+ 1 x162 + 1 x172 + 3 x182	+ 1 x212 + 1	x242 + 1 x252	+ 2 x272	+ 1 x312
  + 1 x23 + 2 x43 + 1 x73 + 1 x83 + 2 x93 + 1 x103 + 1 x163 + 1	x173;

final4 = 1 x11 + 1 x41 + 1 x51 + 2 x81 + 1 x91 + 1 x131 + 1 x151 + 2	x171 + 2 x191	+ 1 x211 + 1 x221 + 1 x231 + 1 x281	+ 1	x301	+ 1 x341 + 1 	x361 + 2 x371
  + 1 x12 + 2 x32 + 2 x52 + 1 x72 + 1 x82 + 1 x92 + 1 x122 + 1 x152	+1 x192	+ 1 x212 + 2 x222 + 1	x242 +	2 x262	+ 1	x302
  + 1 x23 + 1 x53 + 1 x123 + 1 x133 + 1 x193;

final5 = 1 x31 + 1 x71 + 1  x111 + 1 x121 + 1 x131 + 2 x141 + 1 x161 + 2 x201 + 1 x231 + 1 x271	+ 1 x341 + 1 x351
  + 1 x22 + 2 x62 + 1 x92 + 1 x112 + 1 x192 + 1 x202 + 1 x232	+ 1	x252
  + 1 x13 + 1 x33 + 1 x113 + 1 x183;

q1 = x11 + x21 + x31 + x41 + x51 + x61 + x71 + x81 + x91 + x101 + x111 + x121 + x131 + x141 + x151 + x161 + x171 + x181 + x191 + x201 + x211 + x221 + x231 + x241 + x251 + x261 + x271 +	x281 +	x291 +	x301 +	x311 +	x321 +	x331 +	x341 +	x351 +	x361 +	x371;

q2 = x12 + x22 + x32 + x42 + x52 + x62 + x72 + x82 + x92 + x102 +  x112 + x122 + x142 + x152 + x162 + x172 + x182 + x192 + x202 + x212 + x222 + x232	+ x242	+ x252	+ x262	+ x272	+ x282	+ x292	+ x302	+ x312;

q3 = x13 + x23 + x33 + x43 + x53 + x73 + x83 + x93 + x103 + x113 + x123 + x133 + x143 + x153 + x163	+ x173	+ x183	+ x193	+ x203;



//variáveis
int x11,x21,x31,x41,x51,x61,x71,x81,x91,x101,x111,x121,x131,x141,x151,x161,x171,x181,x191,x201,x211,x221,x231,x241,x251,x261,x271,x281,x291,x301,x311,x321,x331,x341,x351,x361,x371,x12,x22,x32,x42,x52,x62,x72,x82,x92,x102,x112,x122,x142,x152,x162,x172,x182,x192,x202,x212,x222,x232,x242,x252,x262,x272,x282,x292,x302,x312,x13,x23,x33,x43,x53,x73,x83,x93,x103,x113,x123,x133,x143,x153,x163,x173,x183,x193,x203;